falcon_planner/lkh_mtsp_solver/resource/amtsp2_1.atsp
NAME : amtsp
TYPE : ATSP
DIMENSION : 6
EDGE_WEIGHT_TYPE : EXPLICIT
EDGE_WEIGHT_FORMAT : FULL_MATRIX
EDGE_WEIGHT_SECTION
0 102167 204793 204852 204534 204699 
0 0 247 3555 4152 3735 
0 247 0 3335 3931 3515 
0 3555 3335 0 179 180 
0 4152 3931 179 0 254 
0 3735 3515 180 254 0 
