falcon_planner/lkh_mtsp_solver/resource/amtsp2_1.tour
NAME : amtsp.6052.tour
COMMENT : Length = 6052
COMMENT : Found by LKH [Keld Helsgaun] Wed Mar  5 13:35:24 2025
TYPE : TOUR
DIMENSION : 5
TOUR_SECTION
1
2
3
4
5
-1
EOF
